C1 H6 N1 1+,Cl1 1-                      
   1.00000000000000     
     6.8076651226483031    0.0020727407938595   -0.1855320434359869
     0.0004051433738876    6.8922402449290336   -0.2047085292781234
    -0.1638768548243663   -0.1859692449341731    5.6451974377854937
   C    N    H    I 
     2     2    12     2
Direct
  0.7809248228499113  0.7498069592229368  0.4746861562820390
  0.2514740378980725  0.2173696490640790  0.5289233394538890
  0.7560310828689294  0.7457148060279190  0.2112237074523529
  0.2547668844877794  0.2437238675236099  0.7928244159438901
  0.2600954340429721  0.3918663696884444  0.8489740663782820
  0.3776961481480750  0.1787208807758740  0.8706523072891712
  0.1280031136422128  0.1882520634702416  0.8586234503925197
  0.3796638300750027  0.2910536147199785  0.4670106812460514
  0.1159264148699659  0.2808283246616782  0.4538516055170649
  0.2565831926731693  0.0619021337028888  0.4750065132172521
  0.8234312297926482  0.6242759984967349  0.1338125514103886
  0.6061911270227409  0.7392401289994941  0.1534199411595052
  0.8129878812350327  0.8712076129928906  0.1466115562810134
  0.7157775941744848  0.8840195078527258  0.5495612407096234
  0.9378903186161094  0.7452147977999146  0.5280586567344318
  0.7058396834208037  0.6229805144722249  0.5355577480764713
  0.7724003331091680  0.2290123574150896  0.0094487303998251
  0.2643168590729034  0.7348103651132828  0.9917531370562384
 
  0.00000000E+00  0.00000000E+00  0.00000000E+00
  0.00000000E+00  0.00000000E+00  0.00000000E+00
  0.00000000E+00  0.00000000E+00  0.00000000E+00
  0.00000000E+00  0.00000000E+00  0.00000000E+00
  0.00000000E+00  0.00000000E+00  0.00000000E+00
  0.00000000E+00  0.00000000E+00  0.00000000E+00
  0.00000000E+00  0.00000000E+00  0.00000000E+00
  0.00000000E+00  0.00000000E+00  0.00000000E+00
  0.00000000E+00  0.00000000E+00  0.00000000E+00
  0.00000000E+00  0.00000000E+00  0.00000000E+00
  0.00000000E+00  0.00000000E+00  0.00000000E+00
  0.00000000E+00  0.00000000E+00  0.00000000E+00
  0.00000000E+00  0.00000000E+00  0.00000000E+00
  0.00000000E+00  0.00000000E+00  0.00000000E+00
  0.00000000E+00  0.00000000E+00  0.00000000E+00
  0.00000000E+00  0.00000000E+00  0.00000000E+00
  0.00000000E+00  0.00000000E+00  0.00000000E+00
  0.00000000E+00  0.00000000E+00  0.00000000E+00
